50
1 0 2
2 0 4
2 1 4
3 2 2
4 0 1
4 2 2
5 0 3
5 2 3
5 3 5
5 4 5
6 3 4
6 5 4
7 3 4
7 4 3
8 3 2
8 5 4
8 6 2
9 0 2
9 2 5
9 4 1
9 5 3
9 6 2
10 5 1
10 6 5
11 0 3
11 1 5
11 2 5
11 5 1
11 6 1
11 10 5
12 0 5
12 1 3
12 2 5
12 3 2
12 4 2
12 5 1
12 7 5
12 8 2
12 9 3
12 10 2
12 11 3
13 2 3
13 7 2
13 8 3
13 10 5
14 2 1
14 3 2
14 6 3
14 8 4
14 9 4
14 10 5
14 12 3
14 13 5
15 3 2
15 4 3
15 7 2
15 8 1
15 10 2
15 11 1
15 12 2
15 14 3
16 1 4
16 2 3
16 3 1
16 4 2
16 9 4
16 10 4
16 12 5
16 13 2
16 14 1
17 1 1
17 3 5
17 5 4
17 13 1
17 14 5
17 15 4
17 16 5
18 0 3
18 1 5
18 4 2
18 6 2
18 9 1
18 12 1
18 13 1
19 1 3
19 2 2
19 3 5
19 4 4
19 5 2
19 6 4
19 7 2
19 9 1
19 11 3
19 15 2
19 16 1
19 17 5
20 0 5
20 1 4
20 4 1
20 5 3
20 6 4
20 10 5
20 12 4
20 13 2
20 14 3
20 15 2
20 18 5
21 1 3
21 2 2
21 6 5
21 7 5
21 8 5
21 9 2
21 10 4
21 12 3
21 14 5
21 16 4
21 17 4
21 18 5
22 0 5
22 3 5
22 5 3
22 7 4
22 9 4
22 11 4
22 12 1
22 13 4
22 14 2
22 15 1
22 16 5
22 17 3
22 19 4
22 20 3
23 0 1
23 1 1
23 3 3
23 5 4
23 6 4
23 9 2
23 11 5
23 12 3
23 13 4
23 14 4
23 16 5
23 19 5
23 21 2
23 22 5
24 0 2
24 2 4
24 3 5
24 4 2
24 5 1
24 6 1
24 7 1
24 8 5
24 10 3
24 12 2
24 13 2
24 14 4
24 17 5
24 18 1
24 20 3
24 21 1
24 22 2
25 0 5
25 1 2
25 3 5
25 6 5
25 7 3
25 12 4
25 13 4
25 15 1
25 17 1
25 20 1
25 22 1
25 23 4
25 24 4
26 0 5
26 1 1
26 2 5
26 3 4
26 4 2
26 10 3
26 12 2
26 13 3
26 14 5
26 15 1
26 16 1
26 17 1
26 21 4
26 23 5
27 2 1
27 3 3
27 4 3
27 7 1
27 8 4
27 9 5
27 10 2
27 11 4
27 13 5
27 15 4
27 17 3
27 18 3
27 19 1
27 20 5
27 21 1
27 25 3
28 0 5
28 2 4
28 3 4
28 5 1
28 6 2
28 9 5
28 11 1
28 14 3
28 17 3
28 18 3
28 20 4
28 24 2
28 25 1
28 27 2
29 0 2
29 1 5
29 2 4
29 5 5
29 7 1
29 8 3
29 9 4
29 11 3
29 12 2
29 14 1
29 15 5
29 16 4
29 18 3
29 19 3
29 20 2
29 22 4
29 23 1
29 26 2
29 27 2
29 28 2
30 0 5
30 2 5
30 3 2
30 4 4
30 5 2
30 8 3
30 9 4
30 10 5
30 12 3
30 14 3
30 16 1
30 19 1
30 23 4
30 24 2
30 26 4
30 28 3
31 0 2
31 2 2
31 3 1
31 6 1
31 8 1
31 10 4
31 11 4
31 12 4
31 13 5
31 15 5
31 17 4
31 18 3
31 19 4
31 20 2
31 21 3
31 22 4
31 23 3
31 29 3
32 1 1
32 3 3
32 5 1
32 6 5
32 8 4
32 10 4
32 14 2
32 15 1
32 16 2
32 21 5
32 22 4
32 23 5
32 24 2
32 25 4
32 26 4
32 28 4
32 29 5
32 30 5
33 1 3
33 2 4
33 3 4
33 4 3
33 8 1
33 9 5
33 12 3
33 13 3
33 16 5
33 17 4
33 19 1
33 22 2
33 24 1
33 25 2
33 27 2
34 2 1
34 3 2
34 4 3
34 5 5
34 6 1
34 7 1
34 8 5
34 9 1
34 10 4
34 11 4
34 14 1
34 16 4
34 20 3
34 21 4
34 22 2
34 30 1
34 31 4
34 33 4
35 1 2
35 4 4
35 5 3
35 6 2
35 7 5
35 9 2
35 11 3
35 12 2
35 13 4
35 14 2
35 15 3
35 16 5
35 25 1
35 26 5
35 27 4
35 30 5
35 33 2
35 34 1
36 1 3
36 2 3
36 3 3
36 5 2
36 7 4
36 15 4
36 19 2
36 20 4
36 21 3
36 23 2
36 25 2
36 26 2
36 28 2
36 30 1
36 31 3
36 33 1
36 34 2
36 35 2
37 0 1
37 2 2
37 5 4
37 8 5
37 10 5
37 12 5
37 15 2
37 16 1
37 17 3
37 18 5
37 21 4
37 26 4
37 27 2
37 30 3
37 31 3
37 32 4
37 35 4
37 36 4
38 0 3
38 1 5
38 2 1
38 4 4
38 6 3
38 7 5
38 8 3
38 10 3
38 13 3
38 15 1
38 19 2
38 20 2
38 22 1
38 23 2
38 24 3
38 25 2
38 26 1
38 27 3
38 29 5
38 31 5
38 32 5
38 33 3
39 1 1
39 5 1
39 6 2
39 8 5
39 9 5
39 11 4
39 14 3
39 15 3
39 16 3
39 18 4
39 22 4
39 23 4
39 24 1
39 26 1
39 27 1
39 28 2
39 31 5
39 33 4
39 36 3
40 2 4
40 3 4
40 4 3
40 6 5
40 11 1
40 14 3
40 15 5
40 16 5
40 17 3
40 20 2
40 24 2
40 26 1
40 27 3
40 28 3
40 30 3
40 34 4
40 35 5
40 36 5
40 37 1
40 39 5
41 6 1
41 7 4
41 8 2
41 9 4
41 10 5
41 11 2
41 13 2
41 15 4
41 16 5
41 17 3
41 20 5
41 21 1
41 22 5
41 23 2
41 24 4
41 26 1
41 29 2
41 31 1
41 34 1
41 35 1
41 38 4
41 39 1
42 1 3
42 2 1
42 6 1
42 9 2
42 10 5
42 12 3
42 14 2
42 15 5
42 16 4
42 21 1
42 22 4
42 23 1
42 33 4
42 34 1
42 35 5
43 0 2
43 1 5
43 4 3
43 9 1
43 10 2
43 14 4
43 16 1
43 18 4
43 19 3
43 23 3
43 26 1
43 30 1
43 31 4
43 33 1
43 34 5
43 36 1
43 38 4
44 2 3
44 4 5
44 5 4
44 7 2
44 9 4
44 12 1
44 16 1
44 17 4
44 19 5
44 20 4
44 21 4
44 23 5
44 24 5
44 25 5
44 26 2
44 27 4
44 28 5
44 30 1
44 32 4
44 35 2
44 37 2
44 38 2
44 39 5
44 40 2
44 42 1
44 43 3
45 0 2
45 2 2
45 4 5
45 6 2
45 9 3
45 13 4
45 16 1
45 17 5
45 18 3
45 20 1
45 25 5
45 30 4
45 33 1
45 34 5
45 35 3
45 36 2
45 37 2
45 38 2
45 40 4
45 41 4
45 43 5
45 44 3
46 0 4
46 1 4
46 2 2
46 3 4
46 4 3
46 6 2
46 8 1
46 9 4
46 10 5
46 12 3
46 15 5
46 19 1
46 20 3
46 21 2
46 22 3
46 23 4
46 24 3
46 25 4
46 26 2
46 27 3
46 31 2
46 32 3
46 33 1
46 34 2
46 35 2
46 36 3
46 38 2
46 39 5
46 41 4
46 42 4
46 43 2
47 0 3
47 1 1
47 2 2
47 3 2
47 4 2
47 7 3
47 10 4
47 13 2
47 16 3
47 17 1
47 18 4
47 21 5
47 24 2
47 25 5
47 26 4
47 27 3
47 29 3
47 30 5
47 31 5
47 35 3
47 40 5
47 42 2
47 44 5
47 45 5
47 46 2
48 3 1
48 4 4
48 6 3
48 7 3
48 9 3
48 10 2
48 11 5
48 12 3
48 14 4
48 16 2
48 17 4
48 18 4
48 19 2
48 21 5
48 22 5
48 24 5
48 26 3
48 28 2
48 29 3
48 30 3
48 31 3
48 35 3
48 37 3
48 38 5
48 39 4
48 41 1
48 42 2
49 0 1
49 3 5
49 12 5
49 16 5
49 17 1
49 19 1
49 20 5
49 23 1
49 26 4
49 28 1
49 30 4
49 33 3
49 34 1
49 35 3
49 37 1
49 38 3
49 40 4
49 43 4
49 44 5
49 46 2
49 48 5
